78261706134611864875010,10,1,2,03,14,1,2,012,6,1,2,03,1,1,2,03,6,1,2,04,8,1,2,02,9,1,2,010,11,1,2,09,10,1,2,04,13,1,2,05,1,1,2,09,8,1,2,015,8,1,2,06,8,1,2,06,14,1,2,05,14,1,2,06,15,1,2,09,11,1,2,04,1,1,2,07,10,1,2,08,7,1,2,01,5,1,2,011,14,1,2,08,4,1,2,010,9,1,2,05,9,1,2,06,4,1,2,013,2,1,2,06,9,1,2,06,8,1,2,014,10,1,2,010,10,1,2,09,15,1,2,06,12,1,2,09,6,1,2,013,2,1,2,07,9,1,2,03,2,1,2,08,12,1,2,01,9,1,2,010,14,1,2,03,14,1,2,07,9,1,2,07,10,1,2,07,14,1,2,015,6,1,2,013,13,1,2,015,12,1,2,04,5,1,2,01,9,1,2,0